Route #1: 4 100 101 98 94 93 95 96 97 99
Route #2: 6 8 9 12 10 7 5 3 2 76
Route #3: 19 18 16 20 17 15 13 14 11
Route #4: 22 23 25 26 28 30 31 29 27 24 21
Route #5: 35 37 40 39 38 36 32 34 33
Route #6: 42 41 43 47 45 46 49 52 51 53 50 48 44
Route #7: 60 61 59 57 54 55 58 56
Route #8: 67 69 65 62 73 81 80 78 74 71 72 77 79 82
Route #9: 68 66 64 75 63 70
Route #10: 91 88 87 84 83 85 86 89 90 92
cost 832